p cnf 10 34
-10 9 6 0
-10 -8 -5 0
-10 8 1 0
10 -8 1 0
-10 7 -4 0
10 -7 3 0
10 7 -3 0
-10 6 -5 0
10 -6 -4 0
-10 -6 -1 0
-10 -5 4 0
-10 4 1 0
-10 2 1 0
-9 -8 7 0
9 8 6 0
-9 8 -6 0
9 -8 3 0
9 -7 5 0
-9 -7 -3 0
-9 -6 3 0
-9 -5 3 0
9 4 3 0
-8 -7 4 0
-8 7 4 0
-8 7 -3 0
8 -7 -1 0
8 5 -4 0
-8 -2 1 0
-7 6 3 0
-7 -4 3 0
-7 -3 1 0
6 -5 3 0
-5 3 -1 0
-3 2 -1 0
